n_res = 5;
rcap = [15, 14, 15, 118, 84];
rtype = [1, 1, 1, 2, 2];
n_tasks = 16;
modes = [ {1, 2, 3}, {4, 5, 6}, {7, 8, 9}, {10, 11, 12}, {13, 14, 15}, {16, 17, 18}, {19, 20, 21}, {22, 23, 24}, {25, 26, 27}, {28, 29, 30}, {31, 32, 33}, {34, 35, 36}, {37, 38, 39}, {40, 41, 42}, {43, 44, 45}, {46, 47, 48} ];
succ = [ {4, 6, 12}, {9, 11, 15}, {4, 6, 7}, {5, 9, 10}, {8, 16}, {13}, {10, 11, 14}, {14, 15}, {14, 16}, {13, 15}, {12}, {13}, {16}, {}, {}, {} ];
n_opt = 48;
dur = [1, 7, 8, 3, 5, 8, 5, 8, 10, 10, 10, 10, 3, 3, 9, 2, 5, 6, 2, 10, 10, 1, 8, 9, 8, 10, 10, 2, 9, 9, 1, 1, 10, 1, 8, 9, 7, 9, 10, 2, 5, 8, 1, 3, 7, 2, 3, 4];
rreq = [|  5,  4,  0,  0,  1,  0,  0,  2,  2,  7,  6,  0,  9,  0,  0,  0,  0,  6,  7,  5,  4,  5,  0,  3,  0,  0,  5,  2,  0,  0,  0,  5,  5,  4,  0,  1,  0,  0,  0, 10,  9,  9,  7,  0,  4,  9,  6,  4
        |  0,  1,  0,  5,  5,  0,  8,  0,  6,  0,  0,  8,  6,  0,  6,  0,  0,  0,  0,  0,  0,  5,  5,  0,  7,  4,  0,  8,  0,  2,  9,  0, 10,  0,  7,  0,  9,  0,  8,  4,  3,  0,  0,  9,  0,  0,  9,  0
        |  0,  0,  6,  9,  5,  3,  9,  7,  0,  0,  0,  0,  0,  7,  0,  7,  5,  0,  9,  5,  7,  0,  2,  0,  0,  0,  0,  4,  3,  0,  0,  1,  0,  0,  0,  9,  0,  7,  6,  8,  0,  0,  3,  0,  0,  0,  4,  0
        | 10, 10,  9,  5,  5,  4,  3,  3,  3,  8, 10, 10, 10, 10, 10,  7,  5,  4,  8,  6,  8,  7,  6,  5,  6,  6,  5,  2,  2,  2, 10,  7,  4,  9,  9,  8,  9,  9,  8,  7,  7,  2,  7,  4,  4,  8,  7,  6
        |  5,  4,  2,  8,  7,  4,  7,  7,  7,  4,  4,  4,  3,  3,  2,  5,  5,  5,  5,  4,  5,  5,  3,  2,  6,  5,  6,  7,  2,  2,  6,  8,  6,  7,  7,  6,  2,  1,  1,  2,  1,  1,  5,  4,  3,  5,  4,  4 |];
